p wcnf 61 92 10
5 -1 0
5 -2 0
5 -3 0
5 -4 0
5 -5 0
5 -6 0
5 -7 0
5 -8 0
5 -9 0
5 -10 0
5 -11 0
5 -12 0
5 -13 0
5 -14 0
5 -15 0
5 -16 0
5 -17 0
5 -18 0
5 -19 0
5 -20 0
5 -21 0
5 -22 0
5 -23 0
5 -24 0
5 -25 0
5 -26 0
5 -27 0
5 -28 0
5 -29 0
5 -30 0
5 -31 0
5 -32 0
5 -33 0
5 -34 0
5 -35 0
5 -36 0
5 -37 0
5 -38 0
5 -39 0
5 -40 0
5 -41 0
5 -42 0
5 -43 0
5 -44 0
5 -45 0
5 -46 0
5 -47 0
5 -48 0
5 -49 0
5 -50 0
5 -51 0
5 -52 0
5 -53 0
5 -54 0
5 -55 0
5 -56 0
5 -57 0
5 -58 0
5 -59 0
5 -60 0
10 1 2 3 4 5 6 7 8 9 10 11 12 13 14 15 16 17 18 19 20 21 22 23 24 25 26 27 28 29 30 31 32 33 34 35 36 37 38 39 40 41 42 43 44 45 46 47 48 49 50 51 52 53 54 55 56 57 58 59 60 0
10 61 0
x 10 1 31 33 34 35 36 37 39 40 43 45 46 47 48 49 51 52 54 56 57 58 59 60 61 0
x 10 2 31 36 37 43 44 46 47 48 53 54 55 57 60 61 0
x 10 3 32 35 36 37 39 44 50 51 55 58 59 60 61 0
x 10 4 31 34 36 39 40 44 45 47 50 51 54 55 56 57 58 59 61 0
x 10 5 31 32 36 37 39 41 49 52 55 56 57 58 59 61 0
x 10 6 31 32 33 34 36 37 39 44 46 48 49 50 52 53 54 56 57 58 61 0
x 10 7 31 33 34 35 40 42 44 46 47 48 49 50 51 52 53 55 56 57 58 60 61 0
x 10 8 31 32 35 38 40 41 42 44 48 52 53 55 56 60 61 0
x 10 9 31 35 36 37 38 39 40 41 42 44 45 47 48 49 52 55 59 60 61 0
x 10 10 39 40 41 43 44 47 48 49 50 51 52 54 55 59 61 0
x 10 11 36 37 40 41 44 45 48 49 50 51 54 55 60 61 0
x 10 12 31 35 38 42 43 46 51 53 54 56 61 0
x 10 13 36 37 38 41 43 45 46 50 51 54 55 58 59 60 61 0
x 10 14 32 33 37 39 40 42 45 47 49 50 53 54 55 57 61 0
x 10 15 31 33 35 39 40 41 42 48 49 51 52 54 56 60 61 0
x 10 16 36 38 39 40 42 43 44 46 50 51 52 57 58 60 61 0
x 10 17 31 32 35 36 37 38 39 40 41 42 43 44 45 46 48 49 51 52 60 61 0
x 10 18 32 33 34 35 36 37 42 43 45 49 50 53 54 56 57 58 61 0
x 10 19 33 35 36 37 38 39 40 41 42 52 53 55 56 57 59 61 0
x 10 20 31 32 33 34 37 44 45 46 49 50 52 56 61 0
x 10 21 31 32 33 36 38 40 41 44 48 49 50 52 54 55 56 58 60 61 0
x 10 22 33 36 37 39 40 43 45 47 49 51 52 53 56 58 61 0
x 10 23 31 32 36 42 44 45 46 47 51 56 57 60 61 0
x 10 24 31 33 38 40 42 43 49 50 51 52 56 58 59 60 61 0
x 10 25 31 32 35 39 40 41 42 43 48 49 52 53 55 59 61 0
x 10 26 32 33 35 39 43 44 46 48 49 50 52 53 54 57 58 60 61 0
x 10 27 31 33 34 36 37 39 43 44 45 46 48 52 53 55 56 57 59 60 61 0
x 10 28 31 32 35 37 40 41 42 45 46 47 50 53 57 61 0
x 10 29 31 32 37 38 39 41 44 45 50 51 52 55 57 60 61 0
x 10 30 38 41 42 44 46 47 49 51 52 53 54 56 58 59 61 0
